c Random 5-CNF over 20 variables and 80 clauses
c Generated with `cnfgen`
c (C) 2012-2016 Massimo Lauria <lauria.massimo@gmail.com>
c https://massimolauria.github.io/cnfgen
c
c COMMAND LINE: cnfgen --output tmp-5-20-80.dimacs --output-format dimacs randkcnf 5 20 80
c
c sdimacs generated by gen-sdimacs
c
p cnf 20 80
r 0.5 1 2 3 4 5 6 7 8 9 10 0
e  11 12 13 14 15 16 17 18 19 20 0
2 -10 -11 12 -15 0
10 11 12 -15 -18 0
1 -2 4 -7 -16 0
-11 -14 -15 -19 -20 0
5 7 8 -11 15 0
-4 -5 11 13 19 0
-1 9 12 19 20 0
1 -5 -7 -9 15 0
-2 -8 -13 -15 -17 0
6 9 13 -15 20 0
-1 2 -3 -12 -19 0
-4 7 10 -14 -16 0
-7 10 11 -17 -19 0
-7 12 -16 -18 -20 0
5 7 11 16 -20 0
-5 8 12 14 -19 0
-1 5 -8 12 19 0
2 13 14 15 19 0
5 -6 9 -15 20 0
-7 11 -16 -17 19 0
1 -4 9 -13 18 0
1 2 -12 13 18 0
-1 -3 4 -10 -11 0
5 -7 10 -15 -17 0
4 5 -14 15 -17 0
-2 3 -11 -13 19 0
1 3 -10 16 -18 0
-3 8 -11 -17 -20 0
2 7 -12 -13 20 0
-1 8 9 -11 12 0
-1 2 10 16 19 0
5 12 13 -16 -18 0
-8 12 13 18 20 0
4 -7 10 13 15 0
-2 9 17 -18 19 0
3 -9 14 16 -17 0
-1 -5 12 13 -17 0
-1 -5 7 13 -17 0
4 6 8 -15 -19 0
3 -4 7 -9 14 0
2 5 -14 15 -17 0
1 -6 -15 16 18 0
-2 4 -9 -13 16 0
-4 11 -12 -15 20 0
4 -5 7 14 19 0
-5 -8 -12 -17 19 0
-1 -8 12 -13 19 0
-1 3 -6 7 -10 0
-1 2 8 -10 -16 0
3 -4 7 9 16 0
8 9 -10 15 16 0
-7 -8 10 -18 -20 0
1 -2 -4 -9 -16 0
3 -11 -14 15 16 0
1 6 12 18 19 0
-4 9 10 -14 20 0
8 9 -11 -13 16 0
-7 9 14 15 -19 0
3 6 18 19 20 0
2 4 -8 -10 12 0
-3 -15 -17 18 19 0
-1 4 10 -14 18 0
-4 -6 -18 -19 20 0
3 10 13 16 -17 0
-1 -3 -11 -15 -17 0
3 -9 10 -12 17 0
5 9 11 -13 -14 0
-3 -10 11 -15 -20 0
5 7 -12 14 -19 0
-5 12 14 -18 20 0
-4 -7 -14 18 19 0
-7 -10 11 14 15 0
5 7 8 -13 -18 0
4 8 -9 -14 -16 0
4 5 -6 -9 13 0
3 -7 13 14 15 0
-1 4 6 -13 -16 0
5 -8 -17 -18 -19 0
-7 -11 -13 18 19 0
4 9 10 15 -19 0
